outputs/case_51.model.txt
consumer_data_fully_understood = True
product_service_suitability_ensured = True
risk_preference_recorded = True
consumer_risk_level_classified = True
compliance_with_compensation_rules = True
consumer_identity_recorded = True
bank_product_review_committee_established = True
suitability_related_rules_complied = True
financial_background_recorded = True
contract_purpose_and_needs_recorded = True
suitability_ensured = True
disclosure_fully_explained = True
investment_attributes_and_risk_tolerance_considered = True
broker_duty_of_care = True
broker_written_report_and_fee_disclosure = True
compliance_with_disclosure_rules = True
fee_disclosure_made = True
risk_tolerance_considered = True
consumer_risk_and_product_risk_classified = True
service_suitability_considered = True
related_insurance_purchased = True
insurance_product_suitability_considered = True
bank_securities_consumer_data_compliance = True
duty_of_care_observed = True
consumer_understands_investment_risk_borne = True
risk_understanding_considered = True
license_permitted_by_authority = True
agent_license_and_insurance = True
duty_of_loyalty_observed = True
compliance_with_suitability_rules = True
disclosure_rules_complied = True
product_risk_level_classified = True
product_suitability_confirmed = True
compliance_with_ad_rules = True
written_analysis_report_provided = True
bank_securities_investment_ability_assessed = True
professional_ability_considered = True
consumer_understands_premium_usage = True
compensation_system_established = True
guarantee_deposit_paid = True
transaction_control_mechanism_established = True
income_and_fund_source_recorded = True
fund_operation_status_considered = True
compensation_system_executed = True
bank_product_suitability_evaluated = True
consumer_confirmation_obtained = True
ad_and_promotion_rules_complied = True
consumer_data_understood = True
investment_attributes_considered = True
penalty = False
investment_experience_recorded = True
product_characteristics_evaluated = True
insurance_type_amount_and_premium_match_needs = True